NAME: data/berlin52.tsp/berlin52.tsp.tour
TYPE: TOUR
DIMENSION: 52
SOLUTION: 6078
TOUR_SECTION
34, 35
23, 47
33, 34
4, 14
4, 23
19, 49
37, 39
4, 5
36, 39
35, 38
38, 39
23, 37
1, 6
0, 21
31, 48
7, 40
0, 48
3, 5
18, 44
6, 41
33, 43
17, 30
35, 48
8, 9
18, 40
19, 22
21, 30
3, 24
26, 27
45, 47
25, 26
15, 49
15, 43
2, 17
20, 30
31, 44
22, 29
7, 9
11, 27
12, 26
25, 46
11, 50
28, 49
12, 13
2, 16
14, 42
11, 24
12, 51
10, 50
20, 41
32, 42
EOF